This is Ipopt version 3.14.5, running with linear solver ma97.

Number of nonzeros in equality constraint Jacobian...:     1231
Number of nonzeros in inequality constraint Jacobian.:        2
Number of nonzeros in Lagrangian Hessian.............:        0

Total number of variables............................:      210
                     variables with only lower bounds:        0
                variables with lower and upper bounds:      210
                     variables with only upper bounds:        0
Total number of equality constraints.................:      147
Total number of inequality constraints...............:        2
        inequality constraints with only lower bounds:        0
   inequality constraints with lower and upper bounds:        2
        inequality constraints with only upper bounds:        0

iter    objective    inf_pr   inf_du lg(mu)  ||d||  lg(rg) alpha_du alpha_pr  ls
   0  6.3448294e-01 4.91e+00 1.00e+06   0.0 0.00e+00    -  0.00e+00 0.00e+00   0
   1  6.3043830e-01 4.15e+00 2.74e+04  -2.5 2.44e-01    -  9.73e-01 1.54e-01h  1
   2  7.0415983e-01 4.16e+00 1.09e+03   0.7 8.53e+01    -  9.99e-01 2.82e-03f  1
   3  9.5206795e-01 1.38e+00 3.10e+01   0.7 5.79e-01    -  9.82e-01 1.00e+00f  1
   4  9.6188930e-01 9.04e-03 2.72e+00  -1.4 2.16e-02    -  9.80e-01 1.00e+00h  1
   5  9.1157632e-01 1.86e-02 1.72e+00  -1.5 6.22e-02    -  9.98e-01 1.00e+00h  1
   6  7.5624171e-01 5.88e-01 1.01e+00  -2.1 4.47e-01    -  1.00e+00 1.00e+00h  1
   7  7.3105099e-01 8.86e-02 4.43e-01  -2.3 2.19e-01    -  9.97e-01 1.00e+00h  1
   8  6.8718062e-01 1.53e-02 4.60e-01  -3.2 1.12e-01    -  1.00e+00 1.00e+00h  1
   9  6.7195661e-01 1.04e-02 3.66e-01  -4.1 4.08e-02    -  1.00e+00 9.11e-01h  1
iter    objective    inf_pr   inf_du lg(mu)  ||d||  lg(rg) alpha_du alpha_pr  ls
  10  6.5998120e-01 1.44e-02 2.83e-01  -3.3 6.93e-02    -  1.00e+00 7.93e-01h  1
  11  6.5179922e-01 2.48e-02 7.40e-02  -3.8 1.12e-01    -  1.00e+00 1.00e+00h  1
  12  6.6014733e-01 5.95e-03 1.91e-01  -3.2 1.04e-01    -  1.00e+00 9.18e-01h  1
  13  6.5103211e-01 2.71e-03 4.41e-02  -3.4 6.06e-02    -  1.00e+00 1.00e+00h  1
  14  6.4913248e-01 5.74e-04 6.86e-03  -4.6 1.86e-02    -  1.00e+00 1.00e+00h  1
  15  6.4885519e-01 5.62e-04 4.09e-02  -5.1 3.95e-02    -  1.00e+00 1.00e+00h  1
  16  6.4889287e-01 3.66e-04 6.78e-02  -4.8 4.04e-02    -  1.00e+00 8.18e-01H  1
  17  6.4851415e-01 8.43e-04 2.02e-02  -4.6 1.72e-02    -  1.00e+00 1.00e+00h  1
  18  6.4831494e-01 2.18e-04 7.55e-03  -6.3 7.46e-03    -  1.00e+00 9.98e-01h  1
  19  6.4826643e-01 3.69e-05 6.06e-03  -6.6 8.45e-03    -  1.00e+00 9.96e-01h  1
iter    objective    inf_pr   inf_du lg(mu)  ||d||  lg(rg) alpha_du alpha_pr  ls
  20  6.4824076e-01 1.11e-04 1.17e-02  -6.3 6.00e-03    -  1.00e+00 9.06e-01h  1
  21  6.4822033e-01 4.24e-04 1.89e-02  -7.2 1.06e-02    -  1.00e+00 1.00e+00h  1
  22  6.4823535e-01 7.56e-06 3.70e-02  -6.1 1.50e-02    -  1.00e+00 1.00e+00H  1
  23  6.4821482e-01 8.49e-06 3.74e-02  -7.3 1.05e-02    -  1.00e+00 1.05e-01h  1
  24  6.4815431e-01 6.15e-05 5.27e-03  -7.9 6.17e-03    -  1.00e+00 9.96e-01h  1
  25  6.4815542e-01 3.55e-05 6.70e-03  -9.3 3.31e-03    -  1.00e+00 1.00e+00h  1
  26  6.4814328e-01 2.72e-06 2.16e-03  -8.6 2.08e-03    -  1.00e+00 1.00e+00h  1
  27  6.4814190e-01 2.70e-06 1.35e-03  -9.8 9.26e-04    -  1.00e+00 1.00e+00h  1
  28  6.4815366e-01 1.41e-07 2.65e-02  -9.2 1.59e-02    -  1.00e+00 1.00e+00H  1
  29  6.4825650e-01 2.40e-09 3.93e-02  -8.5 1.18e-02    -  1.00e+00 1.00e+00H  1
iter    objective    inf_pr   inf_du lg(mu)  ||d||  lg(rg) alpha_du alpha_pr  ls
  30  6.4817681e-01 1.24e-03 5.20e-03  -9.5 1.78e-02    -  1.00e+00 9.08e-01f  1
  31  6.4824793e-01 3.90e-04 1.63e-02  -9.6 8.24e-03    -  9.66e-01 1.00e+00h  1
  32  6.4814434e-01 3.26e-04 2.21e-02  -9.6 7.73e-03    -  6.65e-01 1.00e+00h  1
  33  6.4813518e-01 1.96e-06 1.29e-03  -9.6 8.03e-04    -  1.00e+00 1.00e+00h  1
  34  6.4813464e-01 3.79e-07 1.87e-04 -10.5 4.96e-04    -  1.00e+00 1.00e+00h  1
  35  6.4813452e-01 1.72e-08 1.50e-04 -11.0 2.51e-04    -  1.00e+00 1.00e+00h  1
  36  6.4813434e-01 8.41e-07 6.53e-04 -11.0 8.37e-04    -  1.00e+00 1.00e+00h  1
  37  6.4817760e-01 5.58e-08 1.88e-02 -10.3 1.81e-02    -  1.00e+00 1.00e+00H  1
  38  6.4814721e-01 3.27e-04 1.75e-03 -10.4 1.50e-02    -  1.00e+00 1.00e+00h  1
  39  6.4815165e-01 1.85e-04 3.11e-03 -10.4 7.50e-03    -  1.00e+00 5.00e-01h  2
iter    objective    inf_pr   inf_du lg(mu)  ||d||  lg(rg) alpha_du alpha_pr  ls
  40  6.4813448e-01 1.43e-05 2.79e-04 -10.4 2.96e-03    -  1.00e+00 1.00e+00h  1
  41  6.4813400e-01 1.57e-07 4.03e-04 -10.4 4.07e-04    -  1.00e+00 1.00e+00h  1
  42  6.4813388e-01 2.99e-08 6.22e-05 -11.0 2.18e-04    -  1.00e+00 1.00e+00h  1
  43  6.4813387e-01 3.59e-10 3.97e-05 -11.0 2.46e-05    -  1.00e+00 1.00e+00h  1
  44  6.4813387e-01 1.81e-09 4.13e-05 -11.0 5.05e-05    -  1.00e+00 1.00e+00h  1
  45  6.4813453e-01 1.35e-12 1.67e-03 -11.0 2.05e-03    -  1.00e+00 1.00e+00H  1
  46  6.4813392e-01 1.34e-06 3.01e-04 -11.0 1.32e-03    -  1.00e+00 1.00e+00h  1
  47  6.4813438e-01 3.82e-07 1.15e-03 -11.0 7.09e-04    -  1.00e+00 1.00e+00h  1
  48  6.4813386e-01 2.55e-07 3.21e-05 -11.0 5.75e-04    -  1.00e+00 1.00e+00h  1
  49  6.4813385e-01 2.65e-10 4.45e-05 -11.0 5.64e-05    -  1.00e+00 1.00e+00h  1
iter    objective    inf_pr   inf_du lg(mu)  ||d||  lg(rg) alpha_du alpha_pr  ls
  50  6.4813385e-01 4.01e-11 3.99e-06 -11.0 3.12e-05    -  1.00e+00 1.00e+00h  1
  51  6.4813385e-01 1.72e-11 3.09e-06 -11.0 2.80e-06    -  1.00e+00 1.00e+00h  1
  52  6.4813385e-01 2.29e-14 1.69e-05 -11.0 2.65e-05    -  1.00e+00 1.00e+00H  1
  53  6.4813385e-01 3.89e-11 1.31e-05 -11.0 1.91e-05    -  1.00e+00 1.00e+00h  1
  54  6.4813385e-01 9.52e-11 1.60e-06 -11.0 1.14e-05    -  1.00e+00 1.00e+00h  1
  55  6.4813385e-01 2.23e-11 2.63e-06 -11.0 8.56e-06    -  1.00e+00 1.00e+00h  1
  56  6.4813385e-01 1.66e-10 6.91e-06 -11.0 3.01e-05    -  1.00e+00 1.00e+00h  1
  57  6.4813385e-01 3.05e-14 2.69e-05 -11.0 7.11e-05    -  1.00e+00 1.00e+00H  1
  58  6.4813385e-01 4.10e-14 6.82e-06 -11.0 5.15e-05    -  1.00e+00 1.00e+00H  1
  59  6.4813385e-01 1.53e-14 1.48e-05 -11.0 4.43e-05    -  1.00e+00 1.00e+00H  1
iter    objective    inf_pr   inf_du lg(mu)  ||d||  lg(rg) alpha_du alpha_pr  ls
  60  6.4813385e-01 4.25e-11 2.86e-06 -11.0 3.56e-05    -  1.00e+00 1.00e+00h  1
  61  6.4813385e-01 3.48e-11 9.64e-06 -11.0 1.26e-05    -  1.00e+00 1.00e+00h  1
  62  6.4813385e-01 1.13e-11 8.49e-07 -11.0 9.23e-06    -  1.00e+00 1.00e+00h  1

Number of Iterations....: 62

                                   (scaled)                 (unscaled)
Objective...............:   6.4813385058711459e-01    6.4813385058711459e-01
Dual infeasibility......:   8.4931167647543257e-07    8.4931167647543257e-07
Constraint violation....:   1.1318321889456068e-11    1.1318321889456068e-11
Variable bound violation:   9.9907884187899754e-09    9.9907884187899754e-09
Complementarity.........:   1.0000019945085951e-11    1.0000019945085951e-11
Overall NLP error.......:   8.4931167647543257e-07    8.4931167647543257e-07


Number of objective function evaluations             = 79
Number of objective gradient evaluations             = 63
Number of equality constraint evaluations            = 79
Number of inequality constraint evaluations          = 80
Number of equality constraint Jacobian evaluations   = 63
Number of inequality constraint Jacobian evaluations = 63
Number of Lagrangian Hessian evaluations             = 0
Total seconds in IPOPT                               = 0.121

EXIT: Optimal Solution Found.
